/*********************************************
 * OPL 12.9.0.0 Data
 * Author: Sidharthan Kamaraj
 * Creation Date: May 7, 2020 at 9:20:47 PM
 *********************************************/

num_cabinet = 2;
num_condition = 2;
 
holding = [8 12];
budget = [140 72];
value = [[10 20] [6 8]];